Cost: 1376
0-4-8-7-10-11-9-14-15-16-18-21-22-23-33-32-26-17-24-29-30-65-1-2-0
0-3-70-44-45-53-43-42-35-34-36-37-38-40-46-49-48-51-50-54-0
Cost: 1376
0-4-8-7-10-11-9-14-15-16-18-21-22-23-33-32-26-17-24-29-30-65-1-2-0
0-3-70-44-45-53-43-42-35-34-36-37-38-40-46-49-48-51-50-54-0
Cost: 1376
0-4-8-7-10-11-9-14-15-16-18-21-22-23-33-32-26-17-24-29-30-65-1-2-0
0-3-70-44-45-53-43-42-35-34-36-37-38-40-46-49-48-51-50-54-0
Cost: 1376
0-4-8-7-10-11-9-14-15-16-18-21-22-23-33-32-26-17-24-29-30-65-1-2-0
0-3-70-44-45-53-43-42-35-34-36-37-38-40-46-49-48-51-50-54-0
Cost: 1376
0-4-8-7-10-11-9-14-15-16-18-21-22-23-33-32-26-17-24-29-30-65-1-2-0
0-3-70-44-45-53-43-42-35-34-36-37-38-40-46-49-48-51-50-54-0
Cost: 1376
0-4-8-7-10-11-9-14-15-16-18-21-22-23-33-32-26-17-24-29-30-65-1-2-0
0-3-70-44-45-53-43-42-35-34-36-37-38-40-46-49-48-51-50-54-0
Cost: 1376
0-4-8-7-10-11-9-14-15-16-18-21-22-23-33-32-26-17-24-29-30-65-1-2-0
0-3-70-44-45-53-43-42-35-34-36-37-38-40-46-49-48-51-50-54-0
Cost: 1376
0-4-8-7-10-11-9-14-15-16-18-21-22-23-33-32-26-17-24-29-30-65-1-2-0
0-3-70-44-45-53-43-42-35-34-36-37-38-40-46-49-48-51-50-54-0
Cost: 1376
0-4-8-7-10-11-9-14-15-16-18-21-22-23-33-32-26-17-24-29-30-65-1-2-0
0-3-70-44-45-53-43-42-35-34-36-37-38-40-46-49-48-51-50-54-0
Cost: 1376
0-4-8-7-10-11-9-14-15-16-18-21-22-23-33-32-26-17-24-29-30-65-1-2-0
0-3-70-44-45-53-43-42-35-34-36-37-38-40-46-49-48-51-50-54-0
Cost: 1376
0-3-4-8-7-10-11-9-14-15-16-18-21-23-33-32-26-22-17-64-24-29-31-1-2-0
0-65-44-45-53-43-42-35-34-36-37-38-40-46-49-48-51-50-54-0
Cost: 1376
0-3-4-8-7-10-11-9-14-15-16-18-21-23-33-32-26-22-17-64-24-29-31-1-2-0
0-65-44-45-53-43-42-35-34-36-37-38-40-46-49-48-51-50-54-0
Cost: 1376
0-3-4-8-7-10-11-9-14-15-16-18-21-23-33-32-26-22-17-64-24-29-31-1-2-0
0-65-44-45-53-43-42-35-34-36-37-38-40-46-49-48-51-50-54-0
Cost: 1376
0-3-4-8-7-10-11-9-14-15-16-18-21-23-33-32-26-22-17-64-24-29-31-1-2-0
0-65-44-45-53-43-42-35-34-36-37-38-40-46-49-48-51-50-54-0
Cost: 1376
0-3-4-8-7-10-11-9-14-15-16-18-21-23-33-32-26-22-17-64-24-29-31-1-2-0
0-65-44-45-53-43-42-35-34-36-37-38-40-46-49-48-51-50-54-0
Cost: 1376
0-3-4-8-7-10-11-9-14-15-16-18-21-23-33-32-26-22-17-64-24-29-31-1-2-0
0-65-44-45-53-43-42-35-34-36-37-38-40-46-49-48-51-50-54-0
Cost: 1376
0-3-4-8-7-10-11-9-14-15-16-18-21-23-33-32-26-22-17-64-24-29-31-1-2-0
0-65-44-45-53-43-42-35-34-36-37-38-40-46-49-48-51-50-54-0
Cost: 1376
0-3-4-8-7-10-11-9-14-15-16-18-21-23-33-32-26-22-17-64-24-29-31-1-2-0
0-65-44-45-53-43-42-35-34-36-37-38-40-46-49-48-51-50-54-0
Cost: 1376
0-3-4-8-7-10-11-9-14-15-16-18-21-23-33-32-26-22-17-64-24-29-31-1-2-0
0-65-44-45-53-43-42-35-34-36-37-38-40-46-49-48-51-50-54-0
Cost: 1376
0-3-4-8-7-10-11-9-14-15-16-18-21-23-33-32-26-22-17-64-24-29-31-1-2-0
0-65-44-45-53-43-42-35-34-36-37-38-40-46-49-48-51-50-54-0
Cost: 1376
0-3-4-8-7-10-11-9-14-15-16-18-21-23-33-32-26-22-17-64-24-29-31-1-2-0
0-65-44-45-53-43-42-35-34-36-37-38-40-46-49-48-51-50-54-0
Cost: 1376
0-3-4-8-7-10-11-9-14-15-16-18-21-23-33-32-26-22-17-64-24-29-31-1-2-0
0-65-44-45-53-43-42-35-34-36-37-38-40-46-49-48-51-50-54-0
Cost: 1376
0-3-4-8-7-10-11-9-14-15-16-18-21-23-33-32-26-22-17-64-24-29-31-1-2-0
0-65-44-45-53-43-42-35-34-36-37-38-40-46-49-48-51-50-54-0
Cost: 1376
0-3-4-8-7-10-11-9-14-15-16-18-21-23-33-32-26-22-17-64-24-29-31-1-2-0
0-65-44-45-53-43-42-35-34-36-37-38-40-46-49-48-51-50-54-0
Cost: 1376
0-3-4-70-45-53-44-43-42-35-34-36-37-38-40-46-49-48-51-50-54-0
0-8-7-10-11-9-13-15-16-18-21-23-33-32-26-22-17-24-29-30-65-1-2-0
Cost: 1376
0-3-4-8-7-10-11-9-14-15-16-18-21-23-33-32-26-22-17-64-24-29-31-1-2-0
0-65-44-45-53-43-42-35-34-36-37-38-40-46-49-48-51-50-54-0
Cost: 1376
0-3-4-8-7-10-11-9-14-15-16-18-21-23-33-32-26-22-17-64-24-29-31-1-2-0
0-65-44-45-53-43-42-35-34-36-37-38-40-46-49-48-51-50-54-0
Cost: 1376
0-3-4-8-7-10-11-9-14-15-16-18-21-23-33-32-26-22-17-64-24-29-31-1-2-0
0-65-44-45-53-43-42-35-34-36-37-38-40-46-49-48-51-50-54-0
Cost: 1376
0-3-4-8-7-10-11-9-14-15-16-18-21-23-33-32-26-22-17-64-24-29-31-1-2-0
0-65-44-45-53-43-42-35-34-36-37-38-40-46-49-48-51-50-54-0
Cost: 1376
0-3-4-8-7-10-11-9-14-15-16-18-21-22-23-33-32-26-17-24-29-31-65-1-2-0
0-45-53-44-43-42-35-34-37-38-36-40-68-46-49-48-51-50-54-0
Cost: 1376
0-4-44-45-53-43-42-35-34-36-38-37-40-46-62-49-48-51-50-54-0
0-3-8-7-9-10-11-14-15-16-18-21-23-33-32-26-22-17-64-24-29-31-1-2-0
Cost: 1376
0-44-45-53-43-42-35-34-36-38-37-40-68-46-62-49-48-51-50-54-0
0-3-4-8-7-9-10-11-13-15-16-18-21-22-23-33-32-26-17-24-29-31-1-2-0
Cost: 1376
0-4-8-7-10-11-9-14-15-16-18-21-22-23-33-32-26-17-24-29-30-1-2-0
0-3-70-65-45-53-44-43-42-35-34-37-38-36-40-46-49-48-51-50-54-0
Cost: 1376
0-5-44-45-53-43-42-35-34-36-38-37-40-46-49-48-51-50-54-0
0-3-8-7-10-11-9-14-15-16-18-21-22-23-33-32-26-17-64-24-29-31-65-1-2-0
